13
1 0 1
2 0 1
2 1 4
3 0 2
3 1 1
3 2 1
4 0 4
4 1 2
4 2 1
4 3 2
5 0 2
5 1 4
5 2 2
5 3 3
5 4 4
6 0 4
6 1 2
6 2 4
6 3 3
6 4 1
6 5 3
7 0 1
7 1 2
7 2 2
7 3 1
7 4 2
7 5 4
7 6 3
8 0 2
8 1 3
8 2 2
8 3 4
8 4 4
8 5 3
8 6 4
8 7 2
9 0 4
9 1 3
9 2 3
9 3 4
9 4 3
9 5 1
9 6 3
9 7 4
9 8 1
10 0 1
10 1 4
10 2 1
10 3 4
10 4 3
10 5 4
10 6 1
10 7 1
10 8 4
10 9 4
11 0 2
11 1 4
11 2 2
11 3 4
11 4 1
11 5 3
11 6 1
11 7 4
11 8 3
11 9 3
11 10 1
12 0 4
12 1 2
12 2 1
12 3 4
12 4 3
12 5 4
12 6 4
12 7 3
12 8 4
12 9 4
12 10 2
12 11 1
